 200 76 
 71 77 21 81 92 100 18 59 38 42 86 74 
 15 93 63 81 29 97 66 70 71 25 7 35 
 77 31 80 89 49 7 80 46 87 89 89 20 
 60 60 17 92 8 16 50 27 89 92 35 46 
 53 99 31 100 58 10 67 12 98 36 45 22 
 39 44 51 10 28 100 24 25 30 77 12 99 
 68 82 82 41 
 6 
 16 22 28 32 57 71 
 15 
 1 10 12 13 14 16 25 31 48 49 51 67 
 70 75 76 
 48 
 1 2 5 6 8 9 10 11 14 16 17 19 
 21 22 24 25 26 28 29 30 33 35 37 41 
 42 44 45 46 47 48 49 54 55 57 58 59 
 60 63 64 65 66 67 69 71 72 74 75 76 
 40 
 1 2 3 5 7 10 11 12 14 15 16 17 
 19 24 25 26 31 32 34 36 37 40 43 47 
 49 51 52 54 56 59 60 61 64 65 66 67 
 68 69 71 76 
 61 
 1 2 3 4 5 6 7 8 9 10 11 12 
 13 14 16 17 18 19 20 21 23 26 27 28 
 29 30 31 33 34 36 37 38 40 41 42 43 
 44 45 46 48 50 51 52 53 54 55 56 58 
 59 60 61 62 64 66 68 69 70 71 72 74 
 76 
 8 
 10 12 19 25 35 62 67 70 
 27 
 3 5 6 13 14 17 20 21 22 25 26 28 
 29 36 39 43 44 52 53 58 59 60 63 64 
 69 74 75 
 74 
 1 2 3 5 6 7 8 9 10 11 12 13 
 14 15 16 17 18 19 20 21 22 23 24 25 
 26 27 28 29 30 31 32 33 34 35 36 37 
 38 39 40 41 42 43 44 45 46 47 48 49 
 50 51 52 53 54 55 56 57 58 59 60 61 
 62 63 64 65 66 67 68 69 70 72 73 74 
 75 76 
 9 
 15 28 32 33 36 41 51 64 73 
 52 
 1 2 3 4 6 7 9 10 12 14 18 20 
 21 23 24 25 26 28 29 30 32 34 36 37 
 39 41 42 43 44 45 48 49 50 51 52 54 
 56 58 59 60 61 62 66 67 68 69 70 71 
 73 74 75 76 
 47 
 2 3 5 6 8 10 12 13 15 16 17 19 
 20 21 22 23 24 25 26 28 29 32 33 34 
 35 40 41 43 44 46 47 48 49 50 53 54 
 55 57 60 61 62 63 68 70 72 75 76 
 72 
 1 2 3 4 5 6 7 8 9 10 11 12 
 13 15 16 17 18 19 20 21 22 23 24 25 
 26 27 28 29 30 31 32 33 34 35 36 37 
 38 39 40 41 42 43 44 45 46 47 48 49 
 50 51 53 54 55 56 57 58 59 60 61 62 
 64 66 67 68 69 70 71 72 73 74 75 76 
 63 
 1 2 4 5 6 7 9 10 11 12 14 15 
 16 17 19 20 21 22 23 24 25 26 27 28 
 29 30 31 32 33 34 36 37 39 40 41 42 
 44 45 46 49 50 51 52 53 54 55 56 57 
 58 59 60 61 62 64 67 68 70 71 72 73 
 74 75 76 
 61 
 1 2 3 4 5 6 8 9 10 11 13 15 
 16 17 18 20 21 22 23 24 25 26 27 29 
 30 31 32 34 35 37 39 40 41 42 43 46 
 47 48 49 51 53 54 55 56 57 58 59 61 
 62 63 64 65 66 67 69 70 71 72 73 75 
 76 
 56 
 2 3 4 5 6 7 8 9 10 11 12 13 
 14 15 16 17 18 19 20 21 22 23 25 26 
 27 28 29 30 31 32 33 34 36 37 38 45 
 47 48 49 50 51 52 53 54 55 56 59 62 
 64 65 66 67 68 70 73 76 
 22 
 4 5 9 11 15 23 24 25 27 31 33 35 
 37 38 40 41 48 52 59 64 71 74 
 22 
 2 19 20 22 24 26 27 28 31 32 33 35 
 38 39 42 47 48 50 61 65 66 69 
 16 
 2 12 13 19 27 32 37 39 45 48 55 57 
 68 69 70 75 
 40 
 1 2 5 6 8 11 12 20 21 22 23 24 
 25 26 27 28 30 32 36 37 39 42 43 47 
 48 50 54 56 58 59 61 63 65 67 69 70 
 71 72 73 76 
 73 
 1 2 3 4 5 6 7 8 9 10 11 12 
 13 14 15 16 17 18 19 20 21 22 23 24 
 25 26 27 28 29 30 31 32 33 34 35 36 
 37 39 40 41 42 43 44 45 46 47 48 49 
 50 51 52 53 55 56 57 58 59 60 61 63 
 64 65 66 67 68 69 70 71 72 73 74 75 
 76 
 13 
 3 5 15 33 35 41 43 57 61 63 67 73 
 75 
 65 
 1 2 3 4 5 6 7 8 10 11 12 13 
 14 15 16 19 20 22 23 24 25 27 28 29 
 30 31 32 33 34 35 36 37 38 39 40 41 
 43 44 45 46 47 48 49 51 52 53 54 55 
 56 57 60 61 62 63 64 65 66 67 69 71 
 72 73 74 75 76 
 42 
 3 6 9 11 15 21 22 24 25 26 27 28 
 30 31 34 35 36 37 38 39 41 42 43 45 
 47 48 49 50 52 53 55 56 59 60 61 66 
 67 68 72 73 74 75 
 57 
 1 2 3 8 9 10 12 13 16 17 18 20 
 21 22 23 24 25 27 28 29 30 33 35 36 
 37 38 39 41 42 43 44 45 46 49 50 51 
 52 53 54 56 57 59 60 61 62 63 64 65 
 66 67 68 70 72 73 74 75 76 
 18 
 4 5 6 8 18 24 33 37 41 50 51 53 
 55 62 64 65 67 68 
 29 
 3 5 13 15 23 25 28 30 31 32 34 36 
 38 42 45 46 47 50 51 54 55 56 57 59 
 61 71 73 75 76 
 51 
 1 2 3 4 5 6 7 10 11 13 14 15 
 16 17 19 20 21 24 25 26 27 30 31 32 
 34 35 36 37 40 41 42 43 46 47 48 49 
 51 53 55 58 59 61 63 65 66 69 70 73 
 74 75 76 
 26 
 2 4 11 13 14 17 19 20 25 27 30 34 
 35 39 44 47 51 55 56 58 60 65 68 71 
 72 75 
 4 
 53 58 63 68 
 32 
 1 3 5 7 9 11 13 18 19 22 26 27 
 28 30 31 32 37 39 40 41 45 46 48 50 
 52 53 54 58 69 71 73 76 
 51 
 2 3 4 5 6 7 8 9 15 17 19 21 
 24 26 28 30 32 33 34 35 36 37 39 44 
 46 47 48 49 50 51 52 53 54 55 56 57 
 59 61 62 63 65 66 67 68 69 70 72 73 
 74 75 76 
 3 
 51 64 76 
 34 
 1 2 5 6 11 12 13 15 16 17 18 20 
 22 25 27 29 31 33 37 40 44 47 51 52 
 53 59 61 64 65 69 70 73 74 75 
 76 
 1 2 3 4 5 6 7 8 9 10 11 12 
 13 14 15 16 17 18 19 20 21 22 23 24 
 25 26 27 28 29 30 31 32 33 34 35 36 
 37 38 39 40 41 42 43 44 45 46 47 48 
 49 50 51 52 53 54 55 56 57 58 59 60 
 61 62 63 64 65 66 67 68 69 70 71 72 
 73 74 75 76 
 15 
 3 6 18 19 21 23 37 42 48 49 50 52 
 62 63 72 
 14 
 4 10 29 32 38 41 42 46 52 59 67 68 
 69 73 
 53 
 1 3 4 5 6 10 11 12 13 14 15 16 
 18 19 20 22 24 26 27 28 29 30 31 32 
 33 34 35 36 37 40 41 42 45 47 48 49 
 50 52 57 58 59 60 62 63 65 67 68 69 
 70 73 74 75 76 
 57 
 1 2 3 4 5 6 8 11 12 13 15 16 
 17 18 20 21 22 24 27 28 29 30 32 34 
 35 36 37 38 39 40 43 45 46 47 48 49 
 50 51 52 54 55 56 57 59 60 62 63 65 
 66 67 68 69 71 72 73 74 76 
 20 
 6 18 20 27 33 34 36 41 46 49 53 56 
 57 59 64 65 70 73 74 76 
 63 
 1 2 3 4 7 8 9 10 11 12 13 15 
 16 17 18 21 22 23 24 25 26 27 28 29 
 30 31 32 34 35 36 38 39 40 41 43 44 
 45 46 47 48 49 50 51 52 53 55 57 58 
 59 60 62 64 65 66 68 69 70 71 72 73 
 74 75 76 
 9 
 1 23 24 29 39 52 61 62 73 
 19 
 11 14 15 18 20 24 25 26 29 34 36 45 
 47 54 61 66 67 68 69 
 15 
 1 6 13 20 31 32 36 47 49 51 55 62 
 65 73 76 
 25 
 1 4 5 7 10 12 13 15 16 24 25 28 
 29 37 38 39 46 48 50 53 54 56 60 66 
 74 
 49 
 1 4 5 6 7 8 11 14 15 19 20 22 
 24 25 26 29 30 33 34 36 37 38 39 40 
 42 43 44 48 50 52 53 54 55 58 59 60 
 62 63 64 65 66 67 68 70 71 73 74 75 
 76 
 55 
 1 2 5 6 7 8 9 10 11 12 13 14 
 15 16 17 18 19 20 21 22 23 24 26 28 
 30 31 32 34 37 38 39 40 41 42 43 44 
 46 50 51 53 54 57 59 60 63 64 65 66 
 68 70 71 72 73 74 75 
 55 
 2 3 4 5 6 7 8 10 11 12 13 14 
 16 17 19 20 21 22 23 24 27 28 30 32 
 33 34 36 37 38 39 42 43 44 45 46 47 
 48 52 55 56 57 59 60 62 63 64 66 67 
 69 71 72 73 74 75 76 
 32 
 1 3 4 7 8 9 10 11 12 14 15 16 
 19 26 30 31 38 41 43 46 50 58 61 62 
 63 64 68 69 71 72 74 75 
 47 
 4 5 8 9 10 11 13 15 16 19 21 22 
 23 25 29 30 31 32 34 35 36 37 39 40 
 41 44 45 46 49 50 51 52 53 54 56 58 
 59 60 61 63 65 67 71 72 73 74 76 
 74 
 1 2 3 4 5 6 7 8 10 11 12 13 
 14 15 16 17 18 19 20 21 22 23 24 25 
 26 27 28 29 30 31 32 33 34 35 36 37 
 38 39 40 41 42 43 45 46 47 48 49 50 
 51 52 53 54 55 56 57 58 59 60 61 62 
 63 64 65 66 67 68 69 70 71 72 73 74 
 75 76 
 44 
 1 2 3 6 7 11 15 16 20 21 22 24 
 25 28 30 31 33 34 35 36 37 38 39 44 
 45 46 47 48 49 51 52 53 55 56 57 58 
 61 62 64 65 66 72 74 76 
 56 
 1 2 3 4 5 6 7 8 10 15 16 17 
 18 19 20 22 23 24 26 27 28 30 31 32 
 33 34 35 36 37 38 39 40 42 43 45 46 
 47 48 49 51 52 53 54 55 57 60 63 64 
 65 66 67 68 71 72 73 75 
 45 
 1 2 3 4 6 8 9 10 12 13 14 16 
 17 21 24 25 27 29 32 33 35 36 37 39 
 41 42 45 49 51 53 54 55 56 57 58 59 
 61 62 64 65 66 67 70 72 75 
 72 
 1 2 3 4 5 6 7 8 9 10 11 12 
 13 14 15 16 17 18 19 20 22 23 24 25 
 26 27 28 29 30 31 32 33 34 35 36 37 
 38 39 40 41 42 43 45 46 47 48 49 50 
 51 52 53 54 55 56 57 58 59 60 61 62 
 63 64 65 66 68 69 70 71 72 74 75 76 
 50 
 2 3 6 7 8 9 10 11 12 13 14 16 
 18 21 23 26 27 28 29 30 31 32 35 37 
 38 40 42 43 46 47 48 49 50 52 54 56 
 58 60 61 62 63 65 66 67 68 70 71 72 
 74 76 
 17 
 1 8 11 12 19 20 22 25 26 35 36 37 
 39 45 52 62 73 
 17 
 4 8 10 14 16 25 27 30 32 43 45 57 
 58 61 70 71 74 
 5 
 11 21 44 50 70 
 54 
 1 2 3 4 5 6 7 8 9 10 11 12 
 13 18 19 21 23 24 25 26 27 28 29 30 
 33 34 35 36 40 42 43 44 48 49 50 52 
 53 54 55 56 57 58 59 60 61 62 63 65 
 67 68 69 70 71 73 
 50 
 1 3 5 6 7 9 10 11 13 15 17 18 
 23 26 27 28 29 30 31 32 33 34 35 37 
 39 40 42 43 44 46 47 48 49 50 52 53 
 54 56 57 58 62 63 65 67 69 70 71 72 
 73 76 
 27 
 2 5 7 13 17 19 27 29 30 31 32 33 
 35 38 39 40 42 43 45 47 48 50 55 61 
 67 70 73 
 36 
 2 3 9 11 12 14 16 17 19 20 21 22 
 23 28 33 35 37 38 40 44 47 48 49 50 
 51 52 53 55 56 57 63 65 68 72 73 74 
 9 
 6 8 13 25 27 28 45 51 62 
 76 
 1 2 3 4 5 6 7 8 9 10 11 12 
 13 14 15 16 17 18 19 20 21 22 23 24 
 25 26 27 28 29 30 31 32 33 34 35 36 
 37 38 39 40 41 42 43 44 45 46 47 48 
 49 50 51 52 53 54 55 56 57 58 59 60 
 61 62 63 64 65 66 67 68 69 70 71 72 
 73 74 75 76 
 29 
 3 4 6 10 11 14 18 24 27 28 30 33 
 34 35 36 38 44 46 48 49 50 51 56 57 
 58 60 69 70 72 
 10 
 18 28 30 32 34 45 56 57 65 68 
 62 
 1 2 3 4 5 6 7 9 10 11 12 13 
 14 15 18 19 20 21 22 24 25 27 28 29 
 30 31 32 33 34 35 36 37 38 39 40 42 
 43 44 45 46 47 49 50 51 53 54 55 56 
 57 58 61 62 63 65 66 67 68 69 70 72 
 74 75 
 59 
 2 4 5 6 7 8 9 12 13 14 15 18 
 19 20 21 22 23 24 26 28 29 30 31 32 
 33 34 35 37 38 40 41 43 44 45 47 48 
 49 51 52 53 56 57 58 59 60 61 62 63 
 64 65 66 67 68 70 71 72 73 75 76 
 32 
 2 3 6 10 12 14 15 22 25 28 32 33 
 34 37 39 41 43 45 50 51 52 54 56 57 
 58 61 63 66 69 71 73 76 
 41 
 2 3 12 13 14 15 16 17 18 19 21 22 
 24 25 27 30 31 33 35 36 39 40 41 42 
 43 44 45 49 50 51 53 54 55 58 59 64 
 69 70 71 72 76 
 69 
 2 3 4 5 6 7 8 9 10 11 12 13 
 15 16 17 18 19 20 22 24 25 27 28 29 
 30 31 32 33 34 35 36 37 38 39 40 41 
 42 43 44 45 46 47 48 49 51 52 53 54 
 55 56 57 58 59 60 61 62 63 64 65 66 
 67 68 69 70 71 72 73 75 76 
 34 
 1 3 6 14 15 19 20 21 23 25 26 29 
 31 32 33 35 37 43 45 46 49 50 51 54 
 57 59 64 65 67 69 70 72 73 76 
 26 
 3 5 6 13 14 16 20 21 23 25 28 30 
 31 33 38 47 50 52 55 58 59 63 66 71 
 72 76 
 12 
 2 4 11 13 18 19 35 36 42 66 67 75 
 24 
 3 5 9 16 17 19 25 26 27 28 36 41 
 42 43 46 48 56 58 63 65 66 68 71 74 
 7 
 16 27 40 43 54 55 73 
 71 
 1 2 3 5 6 8 9 10 11 12 13 14 
 15 16 17 18 19 20 21 22 23 24 25 26 
 27 28 29 30 31 32 33 34 35 36 37 38 
 39 40 41 42 43 44 46 47 48 49 50 51 
 52 53 54 55 56 57 58 59 60 61 62 63 
 64 65 66 67 68 69 70 72 74 75 76 
 27 
 1 2 4 7 8 9 10 14 15 16 18 21 
 22 29 35 36 42 50 53 58 59 65 66 68 
 72 74 76 
 74 
 1 2 3 4 5 6 7 8 9 10 11 12 
 13 14 15 16 17 18 19 20 21 22 23 24 
 25 26 27 28 29 30 31 32 33 34 35 36 
 38 39 40 41 42 44 45 46 47 48 49 50 
 51 52 53 54 55 56 57 58 59 60 61 62 
 63 64 65 66 67 68 69 70 71 72 73 74 
 75 76 
 2 
 12 74 
 75 
 1 2 3 4 5 6 7 8 9 10 11 12 
 13 14 15 16 17 18 19 20 21 22 23 24 
 25 26 27 28 29 30 31 32 33 34 35 36 
 37 38 39 40 41 42 43 44 45 46 47 48 
 49 50 51 52 53 54 55 56 57 58 59 60 
 61 62 63 64 65 66 68 69 70 71 72 73 
 74 75 76 
 30 
 1 3 7 8 9 12 18 19 20 24 25 26 
 27 28 29 32 33 34 36 38 40 45 49 52 
 53 56 64 67 69 70 
 38 
 1 3 4 5 6 7 13 15 16 21 22 23 
 26 28 29 32 34 36 37 39 40 41 43 47 
 48 51 53 54 58 59 60 61 65 68 71 73 
 75 76 
 74 
 1 2 3 5 6 7 8 10 11 12 13 14 
 15 16 17 18 19 20 21 22 23 24 25 26 
 27 28 29 30 31 32 33 34 35 36 37 38 
 39 40 41 42 43 44 45 46 47 48 49 50 
 51 52 53 54 55 56 57 58 59 60 61 62 
 63 64 65 66 67 68 69 70 71 72 73 74 
 75 76 
 30 
 1 3 4 8 9 15 16 19 23 29 31 34 
 35 39 41 42 45 46 47 56 57 59 60 61 
 63 65 66 70 71 76 
 55 
 1 2 4 5 6 7 8 9 16 18 19 20 
 21 23 24 25 26 27 28 29 30 31 32 33 
 35 37 39 40 41 42 44 45 47 48 49 50 
 51 52 53 54 57 59 60 61 62 64 65 67 
 68 70 72 73 74 75 76 
 62 
 2 3 4 5 6 7 9 10 11 12 13 14 
 15 16 17 18 19 20 21 22 24 25 26 27 
 28 30 31 32 33 35 37 39 40 41 42 44 
 45 46 47 48 49 50 52 53 54 55 57 58 
 59 60 62 63 64 65 66 67 69 70 71 72 
 73 74 
 5 
 5 14 34 37 54 
 48 
 1 2 3 4 5 6 8 11 12 13 16 17 
 19 20 21 22 23 24 25 26 28 29 30 31 
 32 33 34 37 42 43 47 48 50 54 56 58 
 60 63 64 65 66 67 71 72 73 74 75 76 
 74 
 1 2 3 4 5 6 7 8 10 11 12 13 
 14 15 16 17 18 19 20 21 22 23 24 25 
 26 27 28 29 30 31 32 34 35 36 37 38 
 39 40 41 42 43 44 45 46 47 48 49 50 
 51 52 53 54 55 56 57 58 59 60 61 62 
 63 64 65 66 67 68 69 70 71 72 73 74 
 75 76 
 11 
 33 35 37 39 41 44 53 57 58 68 72 
 17 
 1 9 10 11 26 30 31 32 33 39 42 44 
 50 55 56 59 62 
 13 
 2 8 16 17 35 39 43 45 46 57 61 62 
 67 
 40 
 1 3 4 5 6 7 11 15 18 19 20 22 
 24 25 26 27 28 30 32 37 40 41 43 45 
 47 48 49 50 51 53 56 57 60 61 68 70 
 71 72 74 75 
 20 
 4 13 16 18 21 22 33 36 41 49 51 60 
 62 65 66 67 69 70 71 74 
 71 
 1 2 3 5 6 7 8 9 10 11 12 13 
 14 15 16 17 18 19 20 21 22 23 24 25 
 27 28 29 30 31 32 33 34 35 36 37 38 
 39 40 41 42 43 44 45 46 47 48 49 50 
 51 52 53 54 55 56 57 59 60 61 62 63 
 64 65 67 68 69 71 72 73 74 75 76 
 46 
 3 6 7 8 9 11 13 14 15 16 17 19 
 20 21 22 23 25 26 28 30 31 32 34 39 
 40 42 43 45 47 48 49 51 53 54 56 59 
 60 61 62 63 68 70 72 73 74 75 
 55 
 1 2 3 4 5 7 8 9 10 11 13 15 
 20 21 22 23 24 26 27 28 29 31 32 33 
 34 35 36 38 40 41 44 45 47 49 50 51 
 52 53 54 56 57 58 59 60 61 62 63 64 
 69 70 71 72 74 75 76 
 33 
 2 3 4 5 7 8 9 13 15 17 19 21 
 23 24 28 30 31 38 39 40 45 47 50 52 
 54 56 58 60 65 67 73 74 75 
 73 
 1 2 3 4 5 6 7 8 9 10 11 12 
 13 14 15 16 17 18 19 20 21 22 24 25 
 26 27 28 29 30 31 32 33 34 35 36 37 
 38 39 40 41 42 43 44 45 46 47 48 49 
 51 52 53 54 55 56 57 58 59 60 61 62 
 63 64 65 66 67 68 69 70 71 72 73 74 
 76 
 42 
 3 5 6 7 8 9 10 11 12 15 19 20 
 22 23 24 25 26 27 28 29 31 32 34 35 
 36 37 39 40 43 47 48 58 59 60 61 63 
 65 66 68 69 71 75 
 22 
 1 2 13 14 15 16 18 21 24 31 37 38 
 40 43 48 49 52 57 63 65 68 72 
 64 
 1 2 3 4 5 6 7 8 9 10 12 13 
 14 15 16 17 19 20 21 22 23 24 25 26 
 31 32 33 34 35 36 37 38 40 41 42 43 
 44 46 47 48 49 51 52 53 54 55 56 57 
 58 59 60 61 62 64 65 66 68 69 71 72 
 73 74 75 76 
 18 
 7 8 15 18 24 27 32 38 41 43 51 52 
 58 60 66 67 70 75 
 66 
 1 2 3 5 6 7 9 10 11 12 13 14 
 15 16 17 18 19 20 21 22 24 25 26 27 
 28 29 30 31 32 33 34 35 36 37 38 39 
 40 41 42 43 44 46 48 49 51 52 53 55 
 56 57 58 59 60 61 62 63 64 65 66 68 
 69 70 71 73 75 76 
 20 
 3 6 11 14 19 20 23 26 27 28 38 42 
 44 51 54 62 66 67 68 71 
 74 
 1 2 3 4 5 6 7 8 9 11 12 13 
 14 15 16 17 18 20 21 22 23 24 25 26 
 27 28 29 30 31 32 33 34 35 36 37 38 
 39 40 41 42 43 44 45 46 47 48 49 50 
 51 52 53 54 55 56 57 58 59 60 61 62 
 63 64 65 66 67 68 69 70 71 72 73 74 
 75 76 
 61 
 3 5 6 7 10 11 12 13 14 15 16 17 
 18 19 20 21 22 23 24 25 26 27 30 31 
 32 33 34 35 36 38 40 41 42 43 44 45 
 47 48 49 50 51 53 55 56 58 59 60 61 
 62 63 64 65 66 67 68 69 70 72 74 75 
 76 
 47 
 1 5 6 8 11 13 14 16 17 18 19 20 
 25 29 30 31 33 34 35 38 39 40 42 44 
 46 48 50 51 52 53 55 56 57 58 59 60 
 61 62 63 64 65 67 68 69 72 74 75 
 41 
 1 3 4 5 6 7 9 10 13 14 15 16 
 17 22 24 26 27 28 29 31 32 34 36 40 
 44 50 57 58 59 60 61 62 64 65 66 68 
 71 72 73 75 76 
 61 
 1 2 3 4 5 6 8 9 10 11 12 13 
 14 15 16 18 19 20 21 23 24 25 27 28 
 29 31 32 33 34 35 36 37 39 40 41 42 
 43 44 46 49 50 52 54 55 56 57 59 60 
 61 62 63 65 66 68 70 71 72 73 74 75 
 76 
 73 
 1 2 3 4 5 6 7 8 9 10 11 13 
 14 15 16 17 18 19 20 21 22 23 24 25 
 26 27 29 30 31 32 34 35 36 37 38 39 
 40 41 42 43 44 45 46 47 48 49 50 51 
 52 53 54 55 56 57 58 59 60 61 62 63 
 64 65 66 67 68 69 70 71 72 73 74 75 
 76 
 17 
 5 16 17 20 23 26 28 30 35 46 55 61 
 62 65 67 69 72 
 30 
 4 6 7 12 15 16 18 21 23 26 28 29 
 35 36 41 43 44 45 49 50 51 53 56 59 
 65 69 70 71 72 74 
 2 
 6 40 
 69 
 1 2 3 4 5 6 7 8 9 10 12 13 
 14 15 16 17 18 19 20 21 22 23 24 25 
 26 27 29 30 31 32 33 34 35 36 37 38 
 39 40 41 42 44 45 46 48 49 50 51 52 
 53 54 55 56 57 58 59 60 61 62 63 65 
 66 67 68 70 71 72 74 75 76 
 66 
 1 2 3 4 5 6 7 8 10 11 13 15 
 16 17 18 19 20 22 25 26 27 28 30 31 
 32 33 34 35 37 38 39 40 41 42 44 45 
 46 47 48 49 50 51 52 53 54 56 57 58 
 59 60 61 62 63 64 65 66 67 68 69 70 
 71 72 73 74 75 76 
 12 
 3 10 20 22 24 30 32 33 37 49 53 58 
 3 
 4 23 41 
 30 
 2 5 11 14 16 17 19 20 23 25 28 30 
 31 32 33 38 39 40 43 44 49 52 55 59 
 63 66 70 71 74 75 
 3 
 34 37 70 
 72 
 1 3 5 6 7 8 9 10 11 13 14 15 
 16 17 18 19 20 21 22 23 24 25 26 27 
 28 29 30 31 32 33 34 35 36 37 38 39 
 40 41 42 43 44 45 46 47 48 49 50 52 
 53 54 55 56 57 58 59 60 61 62 63 64 
 65 66 67 68 69 70 71 72 73 74 75 76 
 29 
 4 5 8 9 13 20 23 24 30 33 34 37 
 39 41 42 43 46 48 49 51 53 56 62 63 
 65 68 70 71 76 
 62 
 1 2 3 4 5 6 7 9 11 12 13 14 
 15 16 17 18 20 21 22 24 25 29 30 32 
 33 34 36 37 38 39 40 41 42 43 44 45 
 46 47 48 49 50 51 52 54 56 57 58 59 
 60 61 62 64 65 66 68 69 70 71 72 73 
 74 75 
 8 
 4 13 14 15 26 32 41 51 
 38 
 2 6 12 13 14 17 19 20 22 23 24 26 
 28 29 31 34 35 37 39 42 44 45 50 51 
 53 55 56 57 58 60 63 64 65 66 67 68 
 74 76 
 57 
 1 3 4 6 7 9 10 11 12 15 16 17 
 19 20 21 22 23 24 25 26 28 29 30 31 
 32 34 35 36 37 38 39 40 42 43 44 45 
 47 48 50 51 55 56 58 59 60 62 63 64 
 65 68 69 70 71 72 73 74 76 
 68 
 1 2 3 4 5 6 7 8 10 11 12 13 
 14 15 16 17 18 19 20 22 23 24 25 26 
 27 28 29 30 31 33 34 35 36 37 39 40 
 41 42 43 44 45 46 47 48 49 50 51 52 
 53 54 55 56 57 58 59 60 62 63 64 65 
 67 68 69 70 72 73 75 76 
 14 
 1 14 22 30 31 33 35 38 45 49 54 59 
 68 75 
 15 
 9 20 22 29 30 31 36 39 44 50 60 61 
 69 73 75 
 42 
 3 4 5 6 9 11 13 14 15 18 19 20 
 21 22 25 26 28 29 32 34 36 38 39 40 
 41 42 43 50 51 53 55 56 58 59 63 64 
 67 69 70 74 75 76 
 74 
 1 2 3 4 5 6 7 8 9 10 11 12 
 13 14 15 16 17 18 19 20 21 22 23 25 
 26 27 28 29 30 31 32 33 34 35 36 37 
 38 39 40 41 42 43 44 45 46 47 48 49 
 50 51 52 53 54 55 56 57 58 59 60 61 
 62 63 64 65 66 67 68 69 70 71 72 74 
 75 76 
 21 
 3 6 12 15 17 19 21 23 24 27 30 38 
 41 44 45 46 47 49 53 62 75 
 8 
 6 14 21 26 34 46 58 59 
 75 
 1 2 3 4 5 6 7 8 9 10 11 12 
 13 14 15 16 17 18 19 20 21 22 23 24 
 26 27 28 29 30 31 32 33 34 35 36 37 
 38 39 40 41 42 43 44 45 46 47 48 49 
 50 51 52 53 54 55 56 57 58 59 60 61 
 62 63 64 65 66 67 68 69 70 71 72 73 
 74 75 76 
 7 
 6 18 21 22 50 57 74 
 11 
 10 14 18 21 43 52 58 61 65 72 74 
 6 
 20 24 37 51 66 72 
 10 
 18 23 28 35 43 50 64 65 67 76 
 35 
 5 7 9 14 16 17 18 19 25 27 28 30 
 32 34 41 43 44 46 47 48 51 52 54 57 
 58 59 61 62 63 66 69 73 74 75 76 
 71 
 1 2 3 4 5 7 8 10 11 13 14 15 
 16 17 18 19 20 21 22 23 24 25 26 27 
 28 29 30 31 32 33 34 35 36 37 38 39 
 40 41 42 43 44 45 46 47 48 49 50 52 
 53 54 55 56 57 58 59 60 61 62 63 64 
 66 67 68 69 70 71 72 73 74 75 76 
 7 
 3 17 22 23 42 51 75 
 66 
 2 3 4 6 7 8 9 10 11 12 13 14 
 16 17 18 20 21 22 23 24 26 27 28 29 
 30 31 32 33 34 35 36 37 38 39 40 41 
 42 43 44 45 46 47 48 49 51 52 54 55 
 56 57 58 60 61 62 63 64 65 66 67 69 
 70 71 72 74 75 76 
 10 
 2 4 5 18 35 48 54 59 73 76 
 36 
 1 8 10 13 17 19 22 32 33 34 35 36 
 37 38 39 40 41 43 45 47 50 52 54 57 
 58 60 61 63 64 65 66 70 71 74 75 76 
 33 
 4 8 10 11 13 14 15 17 18 25 28 31 
 32 35 36 41 42 45 46 49 50 55 56 58 
 59 60 62 67 71 73 74 75 76 
 47 
 1 5 6 8 9 11 12 13 14 15 20 22 
 23 25 26 28 29 32 33 34 35 36 38 39 
 40 41 42 43 45 49 50 51 52 54 55 58 
 61 63 65 66 67 70 71 73 74 75 76 
 28 
 1 2 3 16 17 21 22 25 28 29 30 35 
 36 38 40 43 48 50 54 58 59 60 61 63 
 66 69 72 75 
 42 
 1 2 5 6 7 10 11 13 14 15 16 19 
 21 24 26 30 32 33 35 36 38 41 42 44 
 45 50 51 52 55 56 58 59 61 63 65 66 
 68 70 71 73 74 75 
 21 
 1 6 8 10 11 16 19 24 25 28 31 34 
 35 40 43 46 50 56 64 71 73 
 42 
 2 4 6 7 8 11 14 16 17 20 23 25 
 26 28 29 30 31 34 35 36 38 39 40 41 
 42 43 44 45 46 49 50 52 54 56 57 58 
 59 62 63 64 71 72 
 60 
 1 2 3 4 5 6 7 10 11 14 15 16 
 17 18 19 20 21 22 23 25 28 29 30 31 
 33 34 35 36 37 38 39 40 41 43 44 45 
 46 47 48 49 50 51 52 54 55 56 57 59 
 61 63 65 66 67 68 69 70 71 72 73 76 
 41 
 4 6 7 8 9 10 12 14 16 21 23 25 
 28 31 33 34 36 37 38 39 41 42 43 44 
 45 47 48 49 50 51 53 55 56 59 60 61 
 62 63 68 71 74 
 20 
 4 5 6 9 14 15 21 23 24 32 38 45 
 46 47 61 63 65 68 69 72 
 17 
 2 4 6 11 17 20 29 40 49 57 58 63 
 68 69 71 75 76 
 32 
 1 5 6 8 9 13 17 21 22 23 24 25 
 27 28 30 31 33 34 35 39 47 48 52 55 
 57 61 63 67 68 71 72 74 
 59 
 1 2 3 4 9 11 12 13 15 16 17 18 
 20 21 22 24 25 26 27 28 29 30 31 32 
 33 34 35 36 37 38 39 40 41 43 44 45 
 46 47 48 51 52 54 55 56 57 58 60 61 
 62 63 64 65 66 68 69 70 74 75 76 
 11 
 10 12 16 17 18 30 32 34 60 64 70 
 73 
 1 2 3 4 5 6 7 8 9 10 11 12 
 13 14 16 17 18 19 20 21 22 23 24 25 
 26 27 28 29 30 31 32 33 34 35 36 37 
 38 39 40 41 42 44 45 46 47 48 49 50 
 51 52 53 54 55 57 58 59 60 61 62 63 
 64 65 66 67 68 69 70 71 72 73 74 75 
 76 
 73 
 1 2 3 4 5 6 7 8 9 10 11 12 
 13 14 15 16 17 18 20 21 22 23 24 25 
 26 27 28 29 30 31 32 35 36 37 38 39 
 40 41 42 43 44 45 46 47 48 49 50 51 
 52 53 54 55 56 57 58 59 60 61 62 63 
 64 65 66 67 68 69 70 71 72 73 74 75 
 76 
 15 
 3 4 13 16 17 18 21 37 41 50 51 55 
 56 57 60 
 61 
 1 2 3 4 5 6 7 8 9 10 11 12 
 13 14 15 17 18 19 20 21 22 23 24 27 
 28 29 30 31 32 33 34 35 37 38 40 41 
 44 45 46 47 48 49 50 51 53 54 56 58 
 61 63 64 65 66 67 68 69 72 73 74 75 
 76 
 12 
 4 5 14 23 24 27 37 48 53 55 57 70 
 57 
 2 3 4 5 6 9 12 13 14 16 19 20 
 21 22 23 24 25 26 27 28 30 31 32 33 
 34 38 41 42 43 44 45 47 48 49 50 51 
 53 55 56 57 58 60 62 63 64 65 66 67 
 68 69 70 71 72 73 74 75 76 
 2 
 11 57 
 15 
 6 7 18 19 22 23 35 37 38 44 50 52 
 71 73 74 
 42 
 1 2 5 7 10 12 13 14 16 17 19 24 
 26 27 29 33 34 36 37 38 39 40 41 43 
 45 48 49 52 54 55 56 59 61 62 63 64 
 68 70 73 74 75 76 
 69 
 1 2 3 4 5 6 7 8 9 10 11 12 
 13 14 15 16 17 18 19 20 21 22 23 24 
 25 26 27 28 29 30 31 32 33 34 35 37 
 40 41 42 43 44 45 47 48 49 50 51 52 
 53 54 55 56 58 59 60 61 62 63 64 65 
 66 67 68 69 70 72 73 75 76 
 34 
 2 5 17 19 21 23 24 25 26 27 28 30 
 32 33 34 39 40 42 44 45 47 48 53 54 
 55 57 58 59 60 64 66 69 75 76 
 13 
 10 12 17 26 37 38 49 54 65 68 70 72 
 73 
 17 
 4 5 14 16 20 21 26 39 42 52 53 55 
 61 64 66 75 76 
 20 
 2 9 11 13 14 15 17 24 26 27 28 29 
 30 33 39 42 45 51 71 74 
 35 
 5 6 8 10 13 15 16 18 19 21 23 29 
 30 31 32 34 35 40 41 42 47 48 50 52 
 53 54 55 56 60 61 62 67 69 70 76 
 16 
 1 8 16 19 21 28 31 37 38 40 49 54 
 56 59 64 75 
 76 
 1 2 3 4 5 6 7 8 9 10 11 12 
 13 14 15 16 17 18 19 20 21 22 23 24 
 25 26 27 28 29 30 31 32 33 34 35 36 
 37 38 39 40 41 42 43 44 45 46 47 48 
 49 50 51 52 53 54 55 56 57 58 59 60 
 61 62 63 64 65 66 67 68 69 70 71 72 
 73 74 75 76 
 47 
 3 4 6 9 14 18 19 20 21 22 23 24 
 25 27 28 32 33 34 35 36 39 40 41 43 
 45 46 47 49 50 51 53 55 56 57 58 60 
 61 63 64 68 70 71 72 73 74 75 76 
 68 
 2 3 4 5 6 7 8 9 10 11 12 13 
 14 15 16 18 19 20 21 22 23 24 26 27 
 28 29 30 31 32 33 34 35 36 37 38 40 
 41 42 43 44 45 46 48 49 50 51 52 53 
 54 55 57 58 59 61 62 63 64 65 66 67 
 68 69 70 71 72 73 74 76 
 7 
 15 18 31 44 45 62 63 
 5 
 21 37 40 42 61 
 17 
 2 5 13 14 17 20 21 45 50 57 58 59 
 60 67 68 72 75 
 11 
 3 8 12 18 26 36 43 44 51 55 74 
 33 
 6 9 12 13 15 16 19 22 24 25 26 28 
 31 35 37 38 40 44 48 50 51 52 54 57 
 61 62 64 65 67 70 72 75 76 
 49 
 1 3 4 5 8 9 10 12 14 16 17 18 
 20 21 24 25 26 27 28 30 31 32 34 35 
 37 38 39 41 42 43 44 47 49 50 52 53 
 59 61 63 65 66 67 69 70 71 72 74 75 
 76 
 70 
 1 2 3 4 5 6 7 8 9 10 11 12 
 13 14 15 16 17 19 21 22 23 24 25 26 
 27 28 29 30 31 32 33 34 35 36 37 38 
 39 40 41 42 43 44 45 46 47 48 49 50 
 51 52 54 55 56 57 58 59 60 63 64 65 
 66 67 68 69 70 71 73 74 75 76 
 58 
 1 2 3 4 5 7 8 9 10 12 13 14 
 15 16 17 18 19 20 21 22 23 28 29 30 
 32 33 34 37 38 39 40 42 43 44 45 46 
 47 49 50 51 53 54 56 57 59 61 63 64 
 65 66 67 68 69 70 71 72 73 74 
 73 
 1 2 3 4 5 6 7 8 9 10 11 12 
 13 14 15 16 17 18 19 20 21 22 23 24 
 25 26 27 29 30 31 32 33 34 35 36 37 
 38 39 40 41 42 43 44 45 46 47 48 49 
 50 51 52 53 54 55 57 58 59 60 61 62 
 63 64 65 66 67 68 69 70 71 72 73 74 
 76 
 18 
 21 22 23 25 32 36 38 39 42 46 50 58 
 59 61 62 63 67 71 
 8 
 15 16 18 27 55 66 73 75 
 70 
 1 2 3 4 5 7 8 9 10 11 12 14 
 15 16 17 18 19 20 22 23 24 25 26 27 
 28 29 30 31 32 33 34 35 36 37 38 39 
 40 41 42 43 44 45 46 47 48 50 51 52 
 53 54 55 56 57 58 59 60 61 62 63 64 
 66 67 69 70 71 72 73 74 75 76 
 69 
 1 2 3 4 5 6 7 8 9 10 11 12 
 13 14 15 16 17 18 19 20 21 22 23 24 
 25 26 27 28 29 30 31 32 33 34 35 36 
 37 38 39 40 41 42 44 45 46 47 48 49 
 50 51 52 54 55 56 58 59 61 62 63 64 
 66 67 68 69 70 71 73 75 76 
 44 
 1 7 8 9 11 12 14 16 17 18 20 22 
 23 25 26 27 31 32 34 35 36 38 39 41 
 42 45 46 48 49 50 51 54 55 56 59 65 
 66 68 69 71 72 74 75 76 
 5 
 4 14 15 22 33 
 58 
 1 2 4 5 8 11 12 13 14 15 17 19 
 20 21 22 23 24 25 26 27 29 30 31 32 
 33 34 35 36 38 39 40 41 42 43 44 45 
 46 48 49 50 51 52 54 55 56 57 58 63 
 64 65 66 67 68 69 70 73 74 76 
 71 
 1 2 3 4 5 6 8 9 10 11 12 13 
 14 15 16 17 18 19 20 21 22 23 24 25 
 26 27 28 29 30 31 32 33 34 35 36 37 
 38 39 40 41 42 43 44 45 46 47 48 50 
 51 53 54 55 56 57 58 59 60 61 63 64 
 65 66 68 69 70 71 72 73 74 75 76 
 75 
 1 2 3 4 5 6 7 8 9 10 11 12 
 13 14 15 16 17 18 19 20 21 22 23 24 
 25 26 27 28 29 30 31 32 33 34 35 36 
 37 38 39 40 41 42 43 44 45 46 47 48 
 49 50 51 53 54 55 56 57 58 59 60 61 
 62 63 64 65 66 67 68 69 70 71 72 73 
 74 75 76 
 71 
 1 2 3 4 5 6 7 8 9 10 11 12 
 13 14 15 16 17 18 19 20 21 22 23 24 
 25 27 29 30 31 32 33 34 35 36 37 38 
 39 40 41 43 44 45 46 47 48 49 50 51 
 52 53 54 55 56 57 58 59 60 61 62 63 
 64 65 66 67 68 69 71 73 74 75 76 
 24 
 2 3 4 8 9 12 13 15 20 24 27 29 
 30 33 34 38 44 48 49 52 53 62 67 72 
 47 
 1 2 5 6 7 8 9 10 11 16 17 18 
 19 20 22 24 25 27 31 32 34 40 42 43 
 45 46 47 48 49 50 51 52 53 54 55 57 
 58 60 62 63 65 66 67 68 70 72 73 
 31 
 1 2 5 6 8 9 16 19 20 21 27 30 
 32 33 34 38 39 41 47 48 53 55 56 59 
 60 62 65 67 68 71 74 
 5 
 47 49 52 59 76 
 